175
0 137 124 102 105 169 154 110 58 151 
61 15 18 129 77 79 12 88 25 87 
148 121 109 140 112 171 20 174 7 94 
39 150 57 9 70 48 32 56 46 27 
136 63 91 72 118 106 1 50 62 103 
122 40 107 26 65 30 115 24 92 156 
126 60 68 8 116 54 21 90 23 134 
6 73 81 93 159 89 104 44 3 53 
135 31 100 162 119 153 82 163 167 141 
160 14 29 113 78 147 37 120 143 168 
69 80 132 173 33 16 42 123 114 149 
138 71 66 142 95 49 2 170 96 38 
75 34 43 74 108 10 158 99 172 127 
28 130 145 45 17 128 101 36 98 131 
139 13 144 146 76 64 52 55 22 59 
35 67 125 117 5 155 133 164 83 84 
111 85 157 166 152 47 97 41 4 51 
86 161 19 11 165 
